p cnf 606 2056
c p weight -241 1 0
c p weight 241 -1 0
c p weight 245 6.12323399573676603586882014729198302312846062338790031898128063403419218957424163818359375E-17 0
c p weight -245 1 0
c p weight 246 1 0
c p weight -246 1 0
c p weight -243 1 0
c p weight 243 -1 0
c p weight -247 1 0
c p weight 247 -1 0
c p weight -249 1 0
c p weight 249 -1 0
c p weight -252 1 0
c p weight 252 -1 0
c p weight -255 1 0
c p weight 255 -1 0
c p weight -258 1 0
c p weight 258 -1 0
c p weight -261 1 0
c p weight 261 -1 0
c p weight -264 1 0
c p weight 264 -1 0
c p weight -267 1 0
c p weight 267 -1 0
c p weight -270 1 0
c p weight 270 -1 0
c p weight -273 1 0
c p weight 273 -1 0
c p weight -276 1 0
c p weight 276 -1 0
c p weight -279 1 0
c p weight 279 -1 0
c p weight -282 1 0
c p weight 282 -1 0
c p weight -285 1 0
c p weight 285 -1 0
c p weight -288 1 0
c p weight 288 -1 0
c p weight -291 1 0
c p weight 291 -1 0
c p weight -294 1 0
c p weight 294 -1 0
c p weight -297 1 0
c p weight 297 -1 0
c p weight -300 1 0
c p weight 300 -1 0
c p weight -303 1 0
c p weight 303 -1 0
c p weight -306 1 0
c p weight 306 -1 0
c p weight -309 1 0
c p weight 309 -1 0
c p weight -312 1 0
c p weight 312 -1 0
c p weight -315 1 0
c p weight 315 -1 0
c p weight -318 1 0
c p weight 318 -1 0
c p weight -321 1 0
c p weight 321 -1 0
c p weight -324 1 0
c p weight 324 -1 0
c p weight -327 1 0
c p weight 327 -1 0
c p weight -330 1 0
c p weight 330 -1 0
c p weight -333 1 0
c p weight 333 -1 0
c p weight -336 1 0
c p weight 336 -1 0
c p weight -339 1 0
c p weight 339 -1 0
c p weight -342 1 0
c p weight 342 -1 0
c p weight -345 1 0
c p weight 345 -1 0
c p weight -348 1 0
c p weight 348 -1 0
c p weight -351 1 0
c p weight 351 -1 0
c p weight -354 1 0
c p weight 354 -1 0
c p weight -357 1 0
c p weight 357 -1 0
c p weight -360 1 0
c p weight 360 -1 0
c p weight -363 1 0
c p weight 363 -1 0
c p weight -366 1 0
c p weight 366 -1 0
c p weight -369 1 0
c p weight 369 -1 0
c p weight -372 1 0
c p weight 372 -1 0
c p weight -375 1 0
c p weight 375 -1 0
c p weight -378 1 0
c p weight 378 -1 0
c p weight -381 1 0
c p weight 381 -1 0
c p weight -384 1 0
c p weight 384 -1 0
c p weight -387 1 0
c p weight 387 -1 0
c p weight -390 1 0
c p weight 390 -1 0
c p weight -393 1 0
c p weight 393 -1 0
c p weight -396 1 0
c p weight 396 -1 0
c p weight -399 1 0
c p weight 399 -1 0
c p weight -402 1 0
c p weight 402 -1 0
c p weight -405 1 0
c p weight 405 -1 0
c p weight -408 1 0
c p weight 408 -1 0
c p weight -411 1 0
c p weight 411 -1 0
c p weight -414 1 0
c p weight 414 -1 0
c p weight -417 1 0
c p weight 417 -1 0
c p weight -420 1 0
c p weight 420 -1 0
c p weight -423 1 0
c p weight 423 -1 0
c p weight -426 1 0
c p weight 426 -1 0
c p weight -429 1 0
c p weight 429 -1 0
c p weight -432 1 0
c p weight 432 -1 0
c p weight -435 1 0
c p weight 435 -1 0
c p weight -438 1 0
c p weight 438 -1 0
c p weight -441 1 0
c p weight 441 -1 0
c p weight -444 1 0
c p weight 444 -1 0
c p weight -447 1 0
c p weight 447 -1 0
c p weight -450 1 0
c p weight 450 -1 0
c p weight -453 1 0
c p weight 453 -1 0
c p weight -456 1 0
c p weight 456 -1 0
c p weight -459 1 0
c p weight 459 -1 0
c p weight -462 1 0
c p weight 462 -1 0
c p weight -465 1 0
c p weight 465 -1 0
c p weight -468 1 0
c p weight 468 -1 0
c p weight -471 1 0
c p weight 471 -1 0
c p weight -474 1 0
c p weight 474 -1 0
c p weight -477 1 0
c p weight 477 -1 0
c p weight -480 1 0
c p weight 480 -1 0
c p weight -483 1 0
c p weight 483 -1 0
c p weight -486 1 0
c p weight 486 -1 0
c p weight -489 1 0
c p weight 489 -1 0
c p weight -492 1 0
c p weight 492 -1 0
c p weight -495 1 0
c p weight 495 -1 0
c p weight -498 1 0
c p weight 498 -1 0
c p weight -501 1 0
c p weight 501 -1 0
c p weight -504 1 0
c p weight 504 -1 0
c p weight -507 1 0
c p weight 507 -1 0
c p weight -510 1 0
c p weight 510 -1 0
c p weight -513 1 0
c p weight 513 -1 0
c p weight -516 1 0
c p weight 516 -1 0
c p weight -519 1 0
c p weight 519 -1 0
c p weight -522 1 0
c p weight 522 -1 0
c p weight -525 1 0
c p weight 525 -1 0
c p weight -528 1 0
c p weight 528 -1 0
c p weight -531 1 0
c p weight 531 -1 0
c p weight -534 1 0
c p weight 534 -1 0
c p weight -537 1 0
c p weight 537 -1 0
c p weight -540 1 0
c p weight 540 -1 0
c p weight -543 1 0
c p weight 543 -1 0
c p weight -546 1 0
c p weight 546 -1 0
c p weight -549 1 0
c p weight 549 -1 0
c p weight -552 1 0
c p weight 552 -1 0
c p weight -555 1 0
c p weight 555 -1 0
c p weight -558 1 0
c p weight 558 -1 0
c p weight -561 1 0
c p weight 561 -1 0
c p weight -564 1 0
c p weight 564 -1 0
c p weight -567 1 0
c p weight 567 -1 0
c p weight -570 1 0
c p weight 570 -1 0
c p weight -573 1 0
c p weight 573 -1 0
c p weight -576 1 0
c p weight 576 -1 0
c p weight -579 1 0
c p weight 579 -1 0
c p weight -582 1 0
c p weight 582 -1 0
c p weight -585 1 0
c p weight 585 -1 0
c p weight -588 1 0
c p weight 588 -1 0
c p weight -591 1 0
c p weight 591 -1 0
c p weight -594 1 0
c p weight 594 -1 0
c p weight -597 1 0
c p weight 597 -1 0
c p weight -600 1 0
c p weight 600 -1 0
c p weight -603 1 0
c p weight 603 -1 0
c p weight 606 0.5 0
c p weight -606 1 0
606 0
-239 0
-237 0
-235 0
-233 0
-231 0
-229 0
-227 0
-225 0
-223 0
-221 0
-219 0
-217 0
-215 0
-213 0
-211 0
-209 0
-207 0
-205 0
-203 0
-201 0
-199 0
-197 0
-195 0
-193 0
-191 0
-189 0
-187 0
-185 0
-183 0
-181 0
-179 0
-177 0
-175 0
-173 0
-171 0
-169 0
-167 0
-165 0
-163 0
-161 0
-159 0
-157 0
-155 0
-153 0
-151 0
-149 0
-147 0
-145 0
-143 0
-141 0
-139 0
-137 0
-135 0
-133 0
-131 0
-129 0
-127 0
-125 0
-123 0
-121 0
-119 0
-117 0
-115 0
-113 0
-111 0
-109 0
-107 0
-105 0
-103 0
-101 0
-99 0
-97 0
-95 0
-93 0
-91 0
-89 0
-87 0
-85 0
-83 0
-81 0
-79 0
-77 0
-75 0
-73 0
-71 0
-69 0
-67 0
-65 0
-63 0
-61 0
-59 0
-57 0
-55 0
-53 0
-51 0
-49 0
-47 0
-45 0
-43 0
-41 0
-39 0
-37 0
-35 0
-33 0
-31 0
-29 0
-27 0
-25 0
-23 0
-21 0
-19 0
-17 0
-15 0
-13 0
-11 0
-9 0
-7 0
-5 0
-3 0
-1 0
-241 239 0
-241 240 0
241 -239 -240 0
242 239 -240 0
242 -239 240 0
-242 239 240 0
-242 -239 -240 0
-243 244 0
-243 242 0
-243 -239 0
243 -244 239 -242 0
244 -239 242 0
-244 239 242 0
-245 242 0
244 -245 -239 0
-244 -245 239 0
244 245 239 -242 0
-244 245 -239 -242 0
-246 242 0
244 -246 239 0
-244 -246 -239 0
244 246 -239 -242 0
-244 246 239 -242 0
-247 244 0
-247 242 0
247 -244 -242 0
248 244 -242 0
248 -244 242 0
-248 244 242 0
-248 -244 -242 0
-249 244 0
-249 238 0
-249 237 -248 0
-249 -237 248 0
249 -244 237 248 -238 0
249 -244 -237 -248 -238 0
251 244 -237 0
251 -244 237 0
-251 244 237 0
-251 -244 -237 0
250 248 -238 0
250 -248 238 0
-250 248 238 0
-250 -248 -238 0
-252 251 0
-252 236 0
-252 235 -238 0
-252 -235 238 0
252 -251 235 238 -236 0
252 -251 -235 -238 -236 0
254 251 -235 0
254 -251 235 0
-254 251 235 0
-254 -251 -235 0
253 238 -236 0
253 -238 236 0
-253 238 236 0
-253 -238 -236 0
-255 254 0
-255 234 0
-255 233 -236 0
-255 -233 236 0
255 -254 233 236 -234 0
255 -254 -233 -236 -234 0
257 254 -233 0
257 -254 233 0
-257 254 233 0
-257 -254 -233 0
256 236 -234 0
256 -236 234 0
-256 236 234 0
-256 -236 -234 0
-258 257 0
-258 232 0
-258 231 -234 0
-258 -231 234 0
258 -257 231 234 -232 0
258 -257 -231 -234 -232 0
260 257 -231 0
260 -257 231 0
-260 257 231 0
-260 -257 -231 0
259 234 -232 0
259 -234 232 0
-259 234 232 0
-259 -234 -232 0
-261 260 0
-261 230 0
-261 229 -232 0
-261 -229 232 0
261 -260 229 232 -230 0
261 -260 -229 -232 -230 0
263 260 -229 0
263 -260 229 0
-263 260 229 0
-263 -260 -229 0
262 232 -230 0
262 -232 230 0
-262 232 230 0
-262 -232 -230 0
-264 263 0
-264 228 0
-264 227 -230 0
-264 -227 230 0
264 -263 227 230 -228 0
264 -263 -227 -230 -228 0
266 263 -227 0
266 -263 227 0
-266 263 227 0
-266 -263 -227 0
265 230 -228 0
265 -230 228 0
-265 230 228 0
-265 -230 -228 0
-267 266 0
-267 226 0
-267 225 -228 0
-267 -225 228 0
267 -266 225 228 -226 0
267 -266 -225 -228 -226 0
269 266 -225 0
269 -266 225 0
-269 266 225 0
-269 -266 -225 0
268 228 -226 0
268 -228 226 0
-268 228 226 0
-268 -228 -226 0
-270 269 0
-270 224 0
-270 223 -226 0
-270 -223 226 0
270 -269 223 226 -224 0
270 -269 -223 -226 -224 0
272 269 -223 0
272 -269 223 0
-272 269 223 0
-272 -269 -223 0
271 226 -224 0
271 -226 224 0
-271 226 224 0
-271 -226 -224 0
-273 272 0
-273 222 0
-273 221 -224 0
-273 -221 224 0
273 -272 221 224 -222 0
273 -272 -221 -224 -222 0
275 272 -221 0
275 -272 221 0
-275 272 221 0
-275 -272 -221 0
274 224 -222 0
274 -224 222 0
-274 224 222 0
-274 -224 -222 0
-276 275 0
-276 220 0
-276 219 -222 0
-276 -219 222 0
276 -275 219 222 -220 0
276 -275 -219 -222 -220 0
278 275 -219 0
278 -275 219 0
-278 275 219 0
-278 -275 -219 0
277 222 -220 0
277 -222 220 0
-277 222 220 0
-277 -222 -220 0
-279 278 0
-279 218 0
-279 217 -220 0
-279 -217 220 0
279 -278 217 220 -218 0
279 -278 -217 -220 -218 0
281 278 -217 0
281 -278 217 0
-281 278 217 0
-281 -278 -217 0
280 220 -218 0
280 -220 218 0
-280 220 218 0
-280 -220 -218 0
-282 281 0
-282 216 0
-282 215 -218 0
-282 -215 218 0
282 -281 215 218 -216 0
282 -281 -215 -218 -216 0
284 281 -215 0
284 -281 215 0
-284 281 215 0
-284 -281 -215 0
283 218 -216 0
283 -218 216 0
-283 218 216 0
-283 -218 -216 0
-285 284 0
-285 214 0
-285 213 -216 0
-285 -213 216 0
285 -284 213 216 -214 0
285 -284 -213 -216 -214 0
287 284 -213 0
287 -284 213 0
-287 284 213 0
-287 -284 -213 0
286 216 -214 0
286 -216 214 0
-286 216 214 0
-286 -216 -214 0
-288 287 0
-288 212 0
-288 211 -214 0
-288 -211 214 0
288 -287 211 214 -212 0
288 -287 -211 -214 -212 0
290 287 -211 0
290 -287 211 0
-290 287 211 0
-290 -287 -211 0
289 214 -212 0
289 -214 212 0
-289 214 212 0
-289 -214 -212 0
-291 290 0
-291 210 0
-291 209 -212 0
-291 -209 212 0
291 -290 209 212 -210 0
291 -290 -209 -212 -210 0
293 290 -209 0
293 -290 209 0
-293 290 209 0
-293 -290 -209 0
292 212 -210 0
292 -212 210 0
-292 212 210 0
-292 -212 -210 0
-294 293 0
-294 208 0
-294 207 -210 0
-294 -207 210 0
294 -293 207 210 -208 0
294 -293 -207 -210 -208 0
296 293 -207 0
296 -293 207 0
-296 293 207 0
-296 -293 -207 0
295 210 -208 0
295 -210 208 0
-295 210 208 0
-295 -210 -208 0
-297 296 0
-297 206 0
-297 205 -208 0
-297 -205 208 0
297 -296 205 208 -206 0
297 -296 -205 -208 -206 0
299 296 -205 0
299 -296 205 0
-299 296 205 0
-299 -296 -205 0
298 208 -206 0
298 -208 206 0
-298 208 206 0
-298 -208 -206 0
-300 299 0
-300 204 0
-300 203 -206 0
-300 -203 206 0
300 -299 203 206 -204 0
300 -299 -203 -206 -204 0
302 299 -203 0
302 -299 203 0
-302 299 203 0
-302 -299 -203 0
301 206 -204 0
301 -206 204 0
-301 206 204 0
-301 -206 -204 0
-303 302 0
-303 202 0
-303 201 -204 0
-303 -201 204 0
303 -302 201 204 -202 0
303 -302 -201 -204 -202 0
305 302 -201 0
305 -302 201 0
-305 302 201 0
-305 -302 -201 0
304 204 -202 0
304 -204 202 0
-304 204 202 0
-304 -204 -202 0
-306 305 0
-306 200 0
-306 199 -202 0
-306 -199 202 0
306 -305 199 202 -200 0
306 -305 -199 -202 -200 0
308 305 -199 0
308 -305 199 0
-308 305 199 0
-308 -305 -199 0
307 202 -200 0
307 -202 200 0
-307 202 200 0
-307 -202 -200 0
-309 308 0
-309 198 0
-309 197 -200 0
-309 -197 200 0
309 -308 197 200 -198 0
309 -308 -197 -200 -198 0
311 308 -197 0
311 -308 197 0
-311 308 197 0
-311 -308 -197 0
310 200 -198 0
310 -200 198 0
-310 200 198 0
-310 -200 -198 0
-312 311 0
-312 196 0
-312 195 -198 0
-312 -195 198 0
312 -311 195 198 -196 0
312 -311 -195 -198 -196 0
314 311 -195 0
314 -311 195 0
-314 311 195 0
-314 -311 -195 0
313 198 -196 0
313 -198 196 0
-313 198 196 0
-313 -198 -196 0
-315 314 0
-315 194 0
-315 193 -196 0
-315 -193 196 0
315 -314 193 196 -194 0
315 -314 -193 -196 -194 0
317 314 -193 0
317 -314 193 0
-317 314 193 0
-317 -314 -193 0
316 196 -194 0
316 -196 194 0
-316 196 194 0
-316 -196 -194 0
-318 317 0
-318 192 0
-318 191 -194 0
-318 -191 194 0
318 -317 191 194 -192 0
318 -317 -191 -194 -192 0
320 317 -191 0
320 -317 191 0
-320 317 191 0
-320 -317 -191 0
319 194 -192 0
319 -194 192 0
-319 194 192 0
-319 -194 -192 0
-321 320 0
-321 190 0
-321 189 -192 0
-321 -189 192 0
321 -320 189 192 -190 0
321 -320 -189 -192 -190 0
323 320 -189 0
323 -320 189 0
-323 320 189 0
-323 -320 -189 0
322 192 -190 0
322 -192 190 0
-322 192 190 0
-322 -192 -190 0
-324 323 0
-324 188 0
-324 187 -190 0
-324 -187 190 0
324 -323 187 190 -188 0
324 -323 -187 -190 -188 0
326 323 -187 0
326 -323 187 0
-326 323 187 0
-326 -323 -187 0
325 190 -188 0
325 -190 188 0
-325 190 188 0
-325 -190 -188 0
-327 326 0
-327 186 0
-327 185 -188 0
-327 -185 188 0
327 -326 185 188 -186 0
327 -326 -185 -188 -186 0
329 326 -185 0
329 -326 185 0
-329 326 185 0
-329 -326 -185 0
328 188 -186 0
328 -188 186 0
-328 188 186 0
-328 -188 -186 0
-330 329 0
-330 184 0
-330 183 -186 0
-330 -183 186 0
330 -329 183 186 -184 0
330 -329 -183 -186 -184 0
332 329 -183 0
332 -329 183 0
-332 329 183 0
-332 -329 -183 0
331 186 -184 0
331 -186 184 0
-331 186 184 0
-331 -186 -184 0
-333 332 0
-333 182 0
-333 181 -184 0
-333 -181 184 0
333 -332 181 184 -182 0
333 -332 -181 -184 -182 0
335 332 -181 0
335 -332 181 0
-335 332 181 0
-335 -332 -181 0
334 184 -182 0
334 -184 182 0
-334 184 182 0
-334 -184 -182 0
-336 335 0
-336 180 0
-336 179 -182 0
-336 -179 182 0
336 -335 179 182 -180 0
336 -335 -179 -182 -180 0
338 335 -179 0
338 -335 179 0
-338 335 179 0
-338 -335 -179 0
337 182 -180 0
337 -182 180 0
-337 182 180 0
-337 -182 -180 0
-339 338 0
-339 178 0
-339 177 -180 0
-339 -177 180 0
339 -338 177 180 -178 0
339 -338 -177 -180 -178 0
341 338 -177 0
341 -338 177 0
-341 338 177 0
-341 -338 -177 0
340 180 -178 0
340 -180 178 0
-340 180 178 0
-340 -180 -178 0
-342 341 0
-342 176 0
-342 175 -178 0
-342 -175 178 0
342 -341 175 178 -176 0
342 -341 -175 -178 -176 0
344 341 -175 0
344 -341 175 0
-344 341 175 0
-344 -341 -175 0
343 178 -176 0
343 -178 176 0
-343 178 176 0
-343 -178 -176 0
-345 344 0
-345 174 0
-345 173 -176 0
-345 -173 176 0
345 -344 173 176 -174 0
345 -344 -173 -176 -174 0
347 344 -173 0
347 -344 173 0
-347 344 173 0
-347 -344 -173 0
346 176 -174 0
346 -176 174 0
-346 176 174 0
-346 -176 -174 0
-348 347 0
-348 172 0
-348 171 -174 0
-348 -171 174 0
348 -347 171 174 -172 0
348 -347 -171 -174 -172 0
350 347 -171 0
350 -347 171 0
-350 347 171 0
-350 -347 -171 0
349 174 -172 0
349 -174 172 0
-349 174 172 0
-349 -174 -172 0
-351 350 0
-351 170 0
-351 169 -172 0
-351 -169 172 0
351 -350 169 172 -170 0
351 -350 -169 -172 -170 0
353 350 -169 0
353 -350 169 0
-353 350 169 0
-353 -350 -169 0
352 172 -170 0
352 -172 170 0
-352 172 170 0
-352 -172 -170 0
-354 353 0
-354 168 0
-354 167 -170 0
-354 -167 170 0
354 -353 167 170 -168 0
354 -353 -167 -170 -168 0
356 353 -167 0
356 -353 167 0
-356 353 167 0
-356 -353 -167 0
355 170 -168 0
355 -170 168 0
-355 170 168 0
-355 -170 -168 0
-357 356 0
-357 166 0
-357 165 -168 0
-357 -165 168 0
357 -356 165 168 -166 0
357 -356 -165 -168 -166 0
359 356 -165 0
359 -356 165 0
-359 356 165 0
-359 -356 -165 0
358 168 -166 0
358 -168 166 0
-358 168 166 0
-358 -168 -166 0
-360 359 0
-360 164 0
-360 163 -166 0
-360 -163 166 0
360 -359 163 166 -164 0
360 -359 -163 -166 -164 0
362 359 -163 0
362 -359 163 0
-362 359 163 0
-362 -359 -163 0
361 166 -164 0
361 -166 164 0
-361 166 164 0
-361 -166 -164 0
-363 362 0
-363 162 0
-363 161 -164 0
-363 -161 164 0
363 -362 161 164 -162 0
363 -362 -161 -164 -162 0
365 362 -161 0
365 -362 161 0
-365 362 161 0
-365 -362 -161 0
364 164 -162 0
364 -164 162 0
-364 164 162 0
-364 -164 -162 0
-366 365 0
-366 160 0
-366 159 -162 0
-366 -159 162 0
366 -365 159 162 -160 0
366 -365 -159 -162 -160 0
368 365 -159 0
368 -365 159 0
-368 365 159 0
-368 -365 -159 0
367 162 -160 0
367 -162 160 0
-367 162 160 0
-367 -162 -160 0
-369 368 0
-369 158 0
-369 157 -160 0
-369 -157 160 0
369 -368 157 160 -158 0
369 -368 -157 -160 -158 0
371 368 -157 0
371 -368 157 0
-371 368 157 0
-371 -368 -157 0
370 160 -158 0
370 -160 158 0
-370 160 158 0
-370 -160 -158 0
-372 371 0
-372 156 0
-372 155 -158 0
-372 -155 158 0
372 -371 155 158 -156 0
372 -371 -155 -158 -156 0
374 371 -155 0
374 -371 155 0
-374 371 155 0
-374 -371 -155 0
373 158 -156 0
373 -158 156 0
-373 158 156 0
-373 -158 -156 0
-375 374 0
-375 154 0
-375 153 -156 0
-375 -153 156 0
375 -374 153 156 -154 0
375 -374 -153 -156 -154 0
377 374 -153 0
377 -374 153 0
-377 374 153 0
-377 -374 -153 0
376 156 -154 0
376 -156 154 0
-376 156 154 0
-376 -156 -154 0
-378 377 0
-378 152 0
-378 151 -154 0
-378 -151 154 0
378 -377 151 154 -152 0
378 -377 -151 -154 -152 0
380 377 -151 0
380 -377 151 0
-380 377 151 0
-380 -377 -151 0
379 154 -152 0
379 -154 152 0
-379 154 152 0
-379 -154 -152 0
-381 380 0
-381 150 0
-381 149 -152 0
-381 -149 152 0
381 -380 149 152 -150 0
381 -380 -149 -152 -150 0
383 380 -149 0
383 -380 149 0
-383 380 149 0
-383 -380 -149 0
382 152 -150 0
382 -152 150 0
-382 152 150 0
-382 -152 -150 0
-384 383 0
-384 148 0
-384 147 -150 0
-384 -147 150 0
384 -383 147 150 -148 0
384 -383 -147 -150 -148 0
386 383 -147 0
386 -383 147 0
-386 383 147 0
-386 -383 -147 0
385 150 -148 0
385 -150 148 0
-385 150 148 0
-385 -150 -148 0
-387 386 0
-387 146 0
-387 145 -148 0
-387 -145 148 0
387 -386 145 148 -146 0
387 -386 -145 -148 -146 0
389 386 -145 0
389 -386 145 0
-389 386 145 0
-389 -386 -145 0
388 148 -146 0
388 -148 146 0
-388 148 146 0
-388 -148 -146 0
-390 389 0
-390 144 0
-390 143 -146 0
-390 -143 146 0
390 -389 143 146 -144 0
390 -389 -143 -146 -144 0
392 389 -143 0
392 -389 143 0
-392 389 143 0
-392 -389 -143 0
391 146 -144 0
391 -146 144 0
-391 146 144 0
-391 -146 -144 0
-393 392 0
-393 142 0
-393 141 -144 0
-393 -141 144 0
393 -392 141 144 -142 0
393 -392 -141 -144 -142 0
395 392 -141 0
395 -392 141 0
-395 392 141 0
-395 -392 -141 0
394 144 -142 0
394 -144 142 0
-394 144 142 0
-394 -144 -142 0
-396 395 0
-396 140 0
-396 139 -142 0
-396 -139 142 0
396 -395 139 142 -140 0
396 -395 -139 -142 -140 0
398 395 -139 0
398 -395 139 0
-398 395 139 0
-398 -395 -139 0
397 142 -140 0
397 -142 140 0
-397 142 140 0
-397 -142 -140 0
-399 398 0
-399 138 0
-399 137 -140 0
-399 -137 140 0
399 -398 137 140 -138 0
399 -398 -137 -140 -138 0
401 398 -137 0
401 -398 137 0
-401 398 137 0
-401 -398 -137 0
400 140 -138 0
400 -140 138 0
-400 140 138 0
-400 -140 -138 0
-402 401 0
-402 136 0
-402 135 -138 0
-402 -135 138 0
402 -401 135 138 -136 0
402 -401 -135 -138 -136 0
404 401 -135 0
404 -401 135 0
-404 401 135 0
-404 -401 -135 0
403 138 -136 0
403 -138 136 0
-403 138 136 0
-403 -138 -136 0
-405 404 0
-405 134 0
-405 133 -136 0
-405 -133 136 0
405 -404 133 136 -134 0
405 -404 -133 -136 -134 0
407 404 -133 0
407 -404 133 0
-407 404 133 0
-407 -404 -133 0
406 136 -134 0
406 -136 134 0
-406 136 134 0
-406 -136 -134 0
-408 407 0
-408 132 0
-408 131 -134 0
-408 -131 134 0
408 -407 131 134 -132 0
408 -407 -131 -134 -132 0
410 407 -131 0
410 -407 131 0
-410 407 131 0
-410 -407 -131 0
409 134 -132 0
409 -134 132 0
-409 134 132 0
-409 -134 -132 0
-411 410 0
-411 130 0
-411 129 -132 0
-411 -129 132 0
411 -410 129 132 -130 0
411 -410 -129 -132 -130 0
413 410 -129 0
413 -410 129 0
-413 410 129 0
-413 -410 -129 0
412 132 -130 0
412 -132 130 0
-412 132 130 0
-412 -132 -130 0
-414 413 0
-414 128 0
-414 127 -130 0
-414 -127 130 0
414 -413 127 130 -128 0
414 -413 -127 -130 -128 0
416 413 -127 0
416 -413 127 0
-416 413 127 0
-416 -413 -127 0
415 130 -128 0
415 -130 128 0
-415 130 128 0
-415 -130 -128 0
-417 416 0
-417 126 0
-417 125 -128 0
-417 -125 128 0
417 -416 125 128 -126 0
417 -416 -125 -128 -126 0
419 416 -125 0
419 -416 125 0
-419 416 125 0
-419 -416 -125 0
418 128 -126 0
418 -128 126 0
-418 128 126 0
-418 -128 -126 0
-420 419 0
-420 124 0
-420 123 -126 0
-420 -123 126 0
420 -419 123 126 -124 0
420 -419 -123 -126 -124 0
422 419 -123 0
422 -419 123 0
-422 419 123 0
-422 -419 -123 0
421 126 -124 0
421 -126 124 0
-421 126 124 0
-421 -126 -124 0
-423 422 0
-423 122 0
-423 121 -124 0
-423 -121 124 0
423 -422 121 124 -122 0
423 -422 -121 -124 -122 0
425 422 -121 0
425 -422 121 0
-425 422 121 0
-425 -422 -121 0
424 124 -122 0
424 -124 122 0
-424 124 122 0
-424 -124 -122 0
-426 425 0
-426 120 0
-426 119 -122 0
-426 -119 122 0
426 -425 119 122 -120 0
426 -425 -119 -122 -120 0
428 425 -119 0
428 -425 119 0
-428 425 119 0
-428 -425 -119 0
427 122 -120 0
427 -122 120 0
-427 122 120 0
-427 -122 -120 0
-429 428 0
-429 118 0
-429 117 -120 0
-429 -117 120 0
429 -428 117 120 -118 0
429 -428 -117 -120 -118 0
431 428 -117 0
431 -428 117 0
-431 428 117 0
-431 -428 -117 0
430 120 -118 0
430 -120 118 0
-430 120 118 0
-430 -120 -118 0
-432 431 0
-432 116 0
-432 115 -118 0
-432 -115 118 0
432 -431 115 118 -116 0
432 -431 -115 -118 -116 0
434 431 -115 0
434 -431 115 0
-434 431 115 0
-434 -431 -115 0
433 118 -116 0
433 -118 116 0
-433 118 116 0
-433 -118 -116 0
-435 434 0
-435 114 0
-435 113 -116 0
-435 -113 116 0
435 -434 113 116 -114 0
435 -434 -113 -116 -114 0
437 434 -113 0
437 -434 113 0
-437 434 113 0
-437 -434 -113 0
436 116 -114 0
436 -116 114 0
-436 116 114 0
-436 -116 -114 0
-438 437 0
-438 112 0
-438 111 -114 0
-438 -111 114 0
438 -437 111 114 -112 0
438 -437 -111 -114 -112 0
440 437 -111 0
440 -437 111 0
-440 437 111 0
-440 -437 -111 0
439 114 -112 0
439 -114 112 0
-439 114 112 0
-439 -114 -112 0
-441 440 0
-441 110 0
-441 109 -112 0
-441 -109 112 0
441 -440 109 112 -110 0
441 -440 -109 -112 -110 0
443 440 -109 0
443 -440 109 0
-443 440 109 0
-443 -440 -109 0
442 112 -110 0
442 -112 110 0
-442 112 110 0
-442 -112 -110 0
-444 443 0
-444 108 0
-444 107 -110 0
-444 -107 110 0
444 -443 107 110 -108 0
444 -443 -107 -110 -108 0
446 443 -107 0
446 -443 107 0
-446 443 107 0
-446 -443 -107 0
445 110 -108 0
445 -110 108 0
-445 110 108 0
-445 -110 -108 0
-447 446 0
-447 106 0
-447 105 -108 0
-447 -105 108 0
447 -446 105 108 -106 0
447 -446 -105 -108 -106 0
449 446 -105 0
449 -446 105 0
-449 446 105 0
-449 -446 -105 0
448 108 -106 0
448 -108 106 0
-448 108 106 0
-448 -108 -106 0
-450 449 0
-450 104 0
-450 103 -106 0
-450 -103 106 0
450 -449 103 106 -104 0
450 -449 -103 -106 -104 0
452 449 -103 0
452 -449 103 0
-452 449 103 0
-452 -449 -103 0
451 106 -104 0
451 -106 104 0
-451 106 104 0
-451 -106 -104 0
-453 452 0
-453 102 0
-453 101 -104 0
-453 -101 104 0
453 -452 101 104 -102 0
453 -452 -101 -104 -102 0
455 452 -101 0
455 -452 101 0
-455 452 101 0
-455 -452 -101 0
454 104 -102 0
454 -104 102 0
-454 104 102 0
-454 -104 -102 0
-456 455 0
-456 100 0
-456 99 -102 0
-456 -99 102 0
456 -455 99 102 -100 0
456 -455 -99 -102 -100 0
458 455 -99 0
458 -455 99 0
-458 455 99 0
-458 -455 -99 0
457 102 -100 0
457 -102 100 0
-457 102 100 0
-457 -102 -100 0
-459 458 0
-459 98 0
-459 97 -100 0
-459 -97 100 0
459 -458 97 100 -98 0
459 -458 -97 -100 -98 0
461 458 -97 0
461 -458 97 0
-461 458 97 0
-461 -458 -97 0
460 100 -98 0
460 -100 98 0
-460 100 98 0
-460 -100 -98 0
-462 461 0
-462 96 0
-462 95 -98 0
-462 -95 98 0
462 -461 95 98 -96 0
462 -461 -95 -98 -96 0
464 461 -95 0
464 -461 95 0
-464 461 95 0
-464 -461 -95 0
463 98 -96 0
463 -98 96 0
-463 98 96 0
-463 -98 -96 0
-465 464 0
-465 94 0
-465 93 -96 0
-465 -93 96 0
465 -464 93 96 -94 0
465 -464 -93 -96 -94 0
467 464 -93 0
467 -464 93 0
-467 464 93 0
-467 -464 -93 0
466 96 -94 0
466 -96 94 0
-466 96 94 0
-466 -96 -94 0
-468 467 0
-468 92 0
-468 91 -94 0
-468 -91 94 0
468 -467 91 94 -92 0
468 -467 -91 -94 -92 0
470 467 -91 0
470 -467 91 0
-470 467 91 0
-470 -467 -91 0
469 94 -92 0
469 -94 92 0
-469 94 92 0
-469 -94 -92 0
-471 470 0
-471 90 0
-471 89 -92 0
-471 -89 92 0
471 -470 89 92 -90 0
471 -470 -89 -92 -90 0
473 470 -89 0
473 -470 89 0
-473 470 89 0
-473 -470 -89 0
472 92 -90 0
472 -92 90 0
-472 92 90 0
-472 -92 -90 0
-474 473 0
-474 88 0
-474 87 -90 0
-474 -87 90 0
474 -473 87 90 -88 0
474 -473 -87 -90 -88 0
476 473 -87 0
476 -473 87 0
-476 473 87 0
-476 -473 -87 0
475 90 -88 0
475 -90 88 0
-475 90 88 0
-475 -90 -88 0
-477 476 0
-477 86 0
-477 85 -88 0
-477 -85 88 0
477 -476 85 88 -86 0
477 -476 -85 -88 -86 0
479 476 -85 0
479 -476 85 0
-479 476 85 0
-479 -476 -85 0
478 88 -86 0
478 -88 86 0
-478 88 86 0
-478 -88 -86 0
-480 479 0
-480 84 0
-480 83 -86 0
-480 -83 86 0
480 -479 83 86 -84 0
480 -479 -83 -86 -84 0
482 479 -83 0
482 -479 83 0
-482 479 83 0
-482 -479 -83 0
481 86 -84 0
481 -86 84 0
-481 86 84 0
-481 -86 -84 0
-483 482 0
-483 82 0
-483 81 -84 0
-483 -81 84 0
483 -482 81 84 -82 0
483 -482 -81 -84 -82 0
485 482 -81 0
485 -482 81 0
-485 482 81 0
-485 -482 -81 0
484 84 -82 0
484 -84 82 0
-484 84 82 0
-484 -84 -82 0
-486 485 0
-486 80 0
-486 79 -82 0
-486 -79 82 0
486 -485 79 82 -80 0
486 -485 -79 -82 -80 0
488 485 -79 0
488 -485 79 0
-488 485 79 0
-488 -485 -79 0
487 82 -80 0
487 -82 80 0
-487 82 80 0
-487 -82 -80 0
-489 488 0
-489 78 0
-489 77 -80 0
-489 -77 80 0
489 -488 77 80 -78 0
489 -488 -77 -80 -78 0
491 488 -77 0
491 -488 77 0
-491 488 77 0
-491 -488 -77 0
490 80 -78 0
490 -80 78 0
-490 80 78 0
-490 -80 -78 0
-492 491 0
-492 76 0
-492 75 -78 0
-492 -75 78 0
492 -491 75 78 -76 0
492 -491 -75 -78 -76 0
494 491 -75 0
494 -491 75 0
-494 491 75 0
-494 -491 -75 0
493 78 -76 0
493 -78 76 0
-493 78 76 0
-493 -78 -76 0
-495 494 0
-495 74 0
-495 73 -76 0
-495 -73 76 0
495 -494 73 76 -74 0
495 -494 -73 -76 -74 0
497 494 -73 0
497 -494 73 0
-497 494 73 0
-497 -494 -73 0
496 76 -74 0
496 -76 74 0
-496 76 74 0
-496 -76 -74 0
-498 497 0
-498 72 0
-498 71 -74 0
-498 -71 74 0
498 -497 71 74 -72 0
498 -497 -71 -74 -72 0
500 497 -71 0
500 -497 71 0
-500 497 71 0
-500 -497 -71 0
499 74 -72 0
499 -74 72 0
-499 74 72 0
-499 -74 -72 0
-501 500 0
-501 70 0
-501 69 -72 0
-501 -69 72 0
501 -500 69 72 -70 0
501 -500 -69 -72 -70 0
503 500 -69 0
503 -500 69 0
-503 500 69 0
-503 -500 -69 0
502 72 -70 0
502 -72 70 0
-502 72 70 0
-502 -72 -70 0
-504 503 0
-504 68 0
-504 67 -70 0
-504 -67 70 0
504 -503 67 70 -68 0
504 -503 -67 -70 -68 0
506 503 -67 0
506 -503 67 0
-506 503 67 0
-506 -503 -67 0
505 70 -68 0
505 -70 68 0
-505 70 68 0
-505 -70 -68 0
-507 506 0
-507 66 0
-507 65 -68 0
-507 -65 68 0
507 -506 65 68 -66 0
507 -506 -65 -68 -66 0
509 506 -65 0
509 -506 65 0
-509 506 65 0
-509 -506 -65 0
508 68 -66 0
508 -68 66 0
-508 68 66 0
-508 -68 -66 0
-510 509 0
-510 64 0
-510 63 -66 0
-510 -63 66 0
510 -509 63 66 -64 0
510 -509 -63 -66 -64 0
512 509 -63 0
512 -509 63 0
-512 509 63 0
-512 -509 -63 0
511 66 -64 0
511 -66 64 0
-511 66 64 0
-511 -66 -64 0
-513 512 0
-513 62 0
-513 61 -64 0
-513 -61 64 0
513 -512 61 64 -62 0
513 -512 -61 -64 -62 0
515 512 -61 0
515 -512 61 0
-515 512 61 0
-515 -512 -61 0
514 64 -62 0
514 -64 62 0
-514 64 62 0
-514 -64 -62 0
-516 515 0
-516 60 0
-516 59 -62 0
-516 -59 62 0
516 -515 59 62 -60 0
516 -515 -59 -62 -60 0
518 515 -59 0
518 -515 59 0
-518 515 59 0
-518 -515 -59 0
517 62 -60 0
517 -62 60 0
-517 62 60 0
-517 -62 -60 0
-519 518 0
-519 58 0
-519 57 -60 0
-519 -57 60 0
519 -518 57 60 -58 0
519 -518 -57 -60 -58 0
521 518 -57 0
521 -518 57 0
-521 518 57 0
-521 -518 -57 0
520 60 -58 0
520 -60 58 0
-520 60 58 0
-520 -60 -58 0
-522 521 0
-522 56 0
-522 55 -58 0
-522 -55 58 0
522 -521 55 58 -56 0
522 -521 -55 -58 -56 0
524 521 -55 0
524 -521 55 0
-524 521 55 0
-524 -521 -55 0
523 58 -56 0
523 -58 56 0
-523 58 56 0
-523 -58 -56 0
-525 524 0
-525 54 0
-525 53 -56 0
-525 -53 56 0
525 -524 53 56 -54 0
525 -524 -53 -56 -54 0
527 524 -53 0
527 -524 53 0
-527 524 53 0
-527 -524 -53 0
526 56 -54 0
526 -56 54 0
-526 56 54 0
-526 -56 -54 0
-528 527 0
-528 52 0
-528 51 -54 0
-528 -51 54 0
528 -527 51 54 -52 0
528 -527 -51 -54 -52 0
530 527 -51 0
530 -527 51 0
-530 527 51 0
-530 -527 -51 0
529 54 -52 0
529 -54 52 0
-529 54 52 0
-529 -54 -52 0
-531 530 0
-531 50 0
-531 49 -52 0
-531 -49 52 0
531 -530 49 52 -50 0
531 -530 -49 -52 -50 0
533 530 -49 0
533 -530 49 0
-533 530 49 0
-533 -530 -49 0
532 52 -50 0
532 -52 50 0
-532 52 50 0
-532 -52 -50 0
-534 533 0
-534 48 0
-534 47 -50 0
-534 -47 50 0
534 -533 47 50 -48 0
534 -533 -47 -50 -48 0
536 533 -47 0
536 -533 47 0
-536 533 47 0
-536 -533 -47 0
535 50 -48 0
535 -50 48 0
-535 50 48 0
-535 -50 -48 0
-537 536 0
-537 46 0
-537 45 -48 0
-537 -45 48 0
537 -536 45 48 -46 0
537 -536 -45 -48 -46 0
539 536 -45 0
539 -536 45 0
-539 536 45 0
-539 -536 -45 0
538 48 -46 0
538 -48 46 0
-538 48 46 0
-538 -48 -46 0
-540 539 0
-540 44 0
-540 43 -46 0
-540 -43 46 0
540 -539 43 46 -44 0
540 -539 -43 -46 -44 0
542 539 -43 0
542 -539 43 0
-542 539 43 0
-542 -539 -43 0
541 46 -44 0
541 -46 44 0
-541 46 44 0
-541 -46 -44 0
-543 542 0
-543 42 0
-543 41 -44 0
-543 -41 44 0
543 -542 41 44 -42 0
543 -542 -41 -44 -42 0
545 542 -41 0
545 -542 41 0
-545 542 41 0
-545 -542 -41 0
544 44 -42 0
544 -44 42 0
-544 44 42 0
-544 -44 -42 0
-546 545 0
-546 40 0
-546 39 -42 0
-546 -39 42 0
546 -545 39 42 -40 0
546 -545 -39 -42 -40 0
548 545 -39 0
548 -545 39 0
-548 545 39 0
-548 -545 -39 0
547 42 -40 0
547 -42 40 0
-547 42 40 0
-547 -42 -40 0
-549 548 0
-549 38 0
-549 37 -40 0
-549 -37 40 0
549 -548 37 40 -38 0
549 -548 -37 -40 -38 0
551 548 -37 0
551 -548 37 0
-551 548 37 0
-551 -548 -37 0
550 40 -38 0
550 -40 38 0
-550 40 38 0
-550 -40 -38 0
-552 551 0
-552 36 0
-552 35 -38 0
-552 -35 38 0
552 -551 35 38 -36 0
552 -551 -35 -38 -36 0
554 551 -35 0
554 -551 35 0
-554 551 35 0
-554 -551 -35 0
553 38 -36 0
553 -38 36 0
-553 38 36 0
-553 -38 -36 0
-555 554 0
-555 34 0
-555 33 -36 0
-555 -33 36 0
555 -554 33 36 -34 0
555 -554 -33 -36 -34 0
557 554 -33 0
557 -554 33 0
-557 554 33 0
-557 -554 -33 0
556 36 -34 0
556 -36 34 0
-556 36 34 0
-556 -36 -34 0
-558 557 0
-558 32 0
-558 31 -34 0
-558 -31 34 0
558 -557 31 34 -32 0
558 -557 -31 -34 -32 0
560 557 -31 0
560 -557 31 0
-560 557 31 0
-560 -557 -31 0
559 34 -32 0
559 -34 32 0
-559 34 32 0
-559 -34 -32 0
-561 560 0
-561 30 0
-561 29 -32 0
-561 -29 32 0
561 -560 29 32 -30 0
561 -560 -29 -32 -30 0
563 560 -29 0
563 -560 29 0
-563 560 29 0
-563 -560 -29 0
562 32 -30 0
562 -32 30 0
-562 32 30 0
-562 -32 -30 0
-564 563 0
-564 28 0
-564 27 -30 0
-564 -27 30 0
564 -563 27 30 -28 0
564 -563 -27 -30 -28 0
566 563 -27 0
566 -563 27 0
-566 563 27 0
-566 -563 -27 0
565 30 -28 0
565 -30 28 0
-565 30 28 0
-565 -30 -28 0
-567 566 0
-567 26 0
-567 25 -28 0
-567 -25 28 0
567 -566 25 28 -26 0
567 -566 -25 -28 -26 0
569 566 -25 0
569 -566 25 0
-569 566 25 0
-569 -566 -25 0
568 28 -26 0
568 -28 26 0
-568 28 26 0
-568 -28 -26 0
-570 569 0
-570 24 0
-570 23 -26 0
-570 -23 26 0
570 -569 23 26 -24 0
570 -569 -23 -26 -24 0
572 569 -23 0
572 -569 23 0
-572 569 23 0
-572 -569 -23 0
571 26 -24 0
571 -26 24 0
-571 26 24 0
-571 -26 -24 0
-573 572 0
-573 22 0
-573 21 -24 0
-573 -21 24 0
573 -572 21 24 -22 0
573 -572 -21 -24 -22 0
575 572 -21 0
575 -572 21 0
-575 572 21 0
-575 -572 -21 0
574 24 -22 0
574 -24 22 0
-574 24 22 0
-574 -24 -22 0
-576 575 0
-576 20 0
-576 19 -22 0
-576 -19 22 0
576 -575 19 22 -20 0
576 -575 -19 -22 -20 0
578 575 -19 0
578 -575 19 0
-578 575 19 0
-578 -575 -19 0
577 22 -20 0
577 -22 20 0
-577 22 20 0
-577 -22 -20 0
-579 578 0
-579 18 0
-579 17 -20 0
-579 -17 20 0
579 -578 17 20 -18 0
579 -578 -17 -20 -18 0
581 578 -17 0
581 -578 17 0
-581 578 17 0
-581 -578 -17 0
580 20 -18 0
580 -20 18 0
-580 20 18 0
-580 -20 -18 0
-582 581 0
-582 16 0
-582 15 -18 0
-582 -15 18 0
582 -581 15 18 -16 0
582 -581 -15 -18 -16 0
584 581 -15 0
584 -581 15 0
-584 581 15 0
-584 -581 -15 0
583 18 -16 0
583 -18 16 0
-583 18 16 0
-583 -18 -16 0
-585 584 0
-585 14 0
-585 13 -16 0
-585 -13 16 0
585 -584 13 16 -14 0
585 -584 -13 -16 -14 0
587 584 -13 0
587 -584 13 0
-587 584 13 0
-587 -584 -13 0
586 16 -14 0
586 -16 14 0
-586 16 14 0
-586 -16 -14 0
-588 587 0
-588 12 0
-588 11 -14 0
-588 -11 14 0
588 -587 11 14 -12 0
588 -587 -11 -14 -12 0
590 587 -11 0
590 -587 11 0
-590 587 11 0
-590 -587 -11 0
589 14 -12 0
589 -14 12 0
-589 14 12 0
-589 -14 -12 0
-591 590 0
-591 10 0
-591 9 -12 0
-591 -9 12 0
591 -590 9 12 -10 0
591 -590 -9 -12 -10 0
593 590 -9 0
593 -590 9 0
-593 590 9 0
-593 -590 -9 0
592 12 -10 0
592 -12 10 0
-592 12 10 0
-592 -12 -10 0
-594 593 0
-594 8 0
-594 7 -10 0
-594 -7 10 0
594 -593 7 10 -8 0
594 -593 -7 -10 -8 0
596 593 -7 0
596 -593 7 0
-596 593 7 0
-596 -593 -7 0
595 10 -8 0
595 -10 8 0
-595 10 8 0
-595 -10 -8 0
-597 596 0
-597 6 0
-597 5 -8 0
-597 -5 8 0
597 -596 5 8 -6 0
597 -596 -5 -8 -6 0
599 596 -5 0
599 -596 5 0
-599 596 5 0
-599 -596 -5 0
598 8 -6 0
598 -8 6 0
-598 8 6 0
-598 -8 -6 0
-600 599 0
-600 4 0
-600 3 -6 0
-600 -3 6 0
600 -599 3 6 -4 0
600 -599 -3 -6 -4 0
602 599 -3 0
602 -599 3 0
-602 599 3 0
-602 -599 -3 0
601 6 -4 0
601 -6 4 0
-601 6 4 0
-601 -6 -4 0
-603 602 0
-603 2 0
-603 1 -4 0
-603 -1 4 0
603 -602 1 4 -2 0
603 -602 -1 -4 -2 0
605 602 -1 0
605 -602 1 0
-605 602 1 0
-605 -602 -1 0
604 4 -2 0
604 -4 2 0
-604 4 2 0
-604 -4 -2 0
-605 0
-602 0
-604 0
-599 0
-601 0
-596 0
-598 0
-593 0
-595 0
-590 0
-592 0
-587 0
-589 0
-584 0
-586 0
-581 0
-583 0
-578 0
-580 0
-575 0
-577 0
-572 0
-574 0
-569 0
-571 0
-566 0
-568 0
-563 0
-565 0
-560 0
-562 0
-557 0
-559 0
-554 0
-556 0
-551 0
-553 0
-548 0
-550 0
-545 0
-547 0
-542 0
-544 0
-539 0
-541 0
-536 0
-538 0
-533 0
-535 0
-530 0
-532 0
-527 0
-529 0
-524 0
-526 0
-521 0
-523 0
-518 0
-520 0
-515 0
-517 0
-512 0
-514 0
-509 0
-511 0
-506 0
-508 0
-503 0
-505 0
-500 0
-502 0
-497 0
-499 0
-494 0
-496 0
-491 0
-493 0
-488 0
-490 0
-485 0
-487 0
-482 0
-484 0
-479 0
-481 0
-476 0
-478 0
-473 0
-475 0
-470 0
-472 0
-467 0
-469 0
-464 0
-466 0
-461 0
-463 0
-458 0
-460 0
-455 0
-457 0
-452 0
-454 0
-449 0
-451 0
-446 0
-448 0
-443 0
-445 0
-440 0
-442 0
-437 0
-439 0
-434 0
-436 0
-431 0
-433 0
-428 0
-430 0
-425 0
-427 0
-422 0
-424 0
-419 0
-421 0
-416 0
-418 0
-413 0
-415 0
-410 0
-412 0
-407 0
-409 0
-404 0
-406 0
-401 0
-403 0
-398 0
-400 0
-395 0
-397 0
-392 0
-394 0
-389 0
-391 0
-386 0
-388 0
-383 0
-385 0
-380 0
-382 0
-377 0
-379 0
-374 0
-376 0
-371 0
-373 0
-368 0
-370 0
-365 0
-367 0
-362 0
-364 0
-359 0
-361 0
-356 0
-358 0
-353 0
-355 0
-350 0
-352 0
-347 0
-349 0
-344 0
-346 0
-341 0
-343 0
-338 0
-340 0
-335 0
-337 0
-332 0
-334 0
-329 0
-331 0
-326 0
-328 0
-323 0
-325 0
-320 0
-322 0
-317 0
-319 0
-314 0
-316 0
-311 0
-313 0
-308 0
-310 0
-305 0
-307 0
-302 0
-304 0
-299 0
-301 0
-296 0
-298 0
-293 0
-295 0
-290 0
-292 0
-287 0
-289 0
-284 0
-286 0
-281 0
-283 0
-278 0
-280 0
-275 0
-277 0
-272 0
-274 0
-269 0
-271 0
-266 0
-268 0
-263 0
-265 0
-260 0
-262 0
-257 0
-259 0
-254 0
-256 0
-251 0
-253 0
-244 0
-250 0
